100 8
430 874
642 474
142 354
656 574
756 925
849 675
316 869
836 749
83 109
572 855
533 892
748 685
556 406
478 422
702 399
813 543
752 76
566 355
536 381
539 268
563 582
436 924
770 556
868 678
417 347
191 354
207 407
350 765
391 370
582 352
485 496
662 257
789 802
684 342
670 881
224 336
766 242
950 520
377 895
263 775
155 547
426 384
777 545
761 226
678 106
552 540
921 610
98 91
105 26
627 876
196 165
74 401
817 778
241 568
671 206
812 792
851 765
817 642
90 595
801 426
559 849
673 318
959 392
663 240
635 446
928 530
607 857
906 750
366 907
348 760
852 651
894 694
169 46
159 54
808 686
573 784
126 162
589 316
816 768
617 254
246 918
90 205
826 698
283 817
160 121
203 653
618 772
239 625
154 444
81 408
624 440
904 412
295 615
669 662
823 489
800 869
731 234
158 427
232 75
615 294
